db/inputs/674217422403416383503692312796728779.smt2
(set-logic QF_FP)
(declare-const x0 (_ FloatingPoint 8 24))
(declare-const x1 (_ FloatingPoint 8 24))
(declare-const x2 (_ FloatingPoint 8 24))
(declare-const x3 (_ FloatingPoint 8 24))
(declare-const x4 (_ FloatingPoint 8 24))
(declare-const x5 (_ FloatingPoint 8 24))
(declare-const x6 (_ FloatingPoint 8 24))
(declare-const x7 (_ FloatingPoint 8 24))
(declare-const x8 (_ FloatingPoint 8 24))
(assert (fp.eq (fp.add RNE (fp.mul RNE (fp.add RNE x5 x1) (fp.neg x6)) (fp.neg (fp.div RNE x2 x4))) (fp.sub RNE (fp.sub RNE (fp.add RNE x6 x1) (fp.mul RNE x8 x1)) (fp.add RNE (fp.mul RNE x1 x3) (fp.neg x8)))))
(assert (fp.geq (fp.add RNE (fp.neg (fp.div RNE x2 x8)) (fp.div RNE (fp.sub RNE x3 x7) (fp.neg x0))) (fp.div RNE (fp.add RNE (fp.sub RNE x3 x1) (fp.neg x4)) (fp.mul RNE (fp.neg x5) (fp.neg x8)))))
(assert (fp.gt (fp.neg (fp.div RNE (fp.add RNE x7 x4) (fp.add RNE x5 x2))) (fp.add RNE (fp.add RNE (fp.div RNE x6 x1) (fp.mul RNE x1 x4)) (fp.neg (fp.div RNE x3 x4)))))
(assert (fp.lt (fp.add RNE (fp.div RNE (fp.div RNE x0 x6) (fp.mul RNE x5 x2)) (fp.sub RNE (fp.neg x1) (fp.add RNE x1 x4))) (fp.add RNE (fp.sub RNE (fp.mul RNE x8 x1) (fp.sub RNE x0 x3)) (fp.div RNE (fp.neg x1) (fp.sub RNE x0 x6)))))
(assert (fp.lt (fp.div RNE (fp.neg (fp.neg x6)) (fp.div RNE (fp.mul RNE x1 x6) (fp.add RNE x8 x4))) (fp.neg (fp.mul RNE (fp.div RNE x4 x8) (fp.sub RNE x6 x4)))))
(assert (fp.eq (fp.sub RNE (fp.add RNE (fp.sub RNE x1 x8) (fp.mul RNE x7 x4)) (fp.neg (fp.div RNE x6 x8))) (fp.neg (fp.mul RNE (fp.sub RNE x3 x6) (fp.neg x7)))))
(assert (fp.geq (fp.sub RNE (fp.neg (fp.neg x0)) (fp.neg (fp.sub RNE x0 x2))) (fp.neg (fp.div RNE (fp.neg x0) (fp.add RNE x6 x0)))))
(check-sat)
