db/data/674217422403416383503692312796728779.z3.out
sat
-------------------
1922.669385367
